c CNF file corresponding to a (partial) station packing problem.
p cnf 3243 229
1 2 3 4 5 6 7 8 9 10 11 12 13 14 0
-1 -2 0
-1 -3 0
-1 -4 0
-1 -5 0
-1 -6 0
-1 -7 0
-1 -8 0
-1 -9 0
-1 -10 0
-1 -11 0
-1 -12 0
-1 -13 0
-1 -14 0
-2 -3 0
-2 -4 0
-2 -5 0
-2 -6 0
-2 -7 0
-2 -8 0
-2 -9 0
-2 -10 0
-2 -11 0
-2 -12 0
-2 -13 0
-2 -14 0
-3 -4 0
-3 -5 0
-3 -6 0
-3 -7 0
-3 -8 0
-3 -9 0
-3 -10 0
-3 -11 0
-3 -12 0
-3 -13 0
-3 -14 0
-4 -5 0
-4 -6 0
-4 -7 0
-4 -8 0
-4 -9 0
-4 -10 0
-4 -11 0
-4 -12 0
-4 -13 0
-4 -14 0
-5 -6 0
-5 -7 0
-5 -8 0
-5 -9 0
-5 -10 0
-5 -11 0
-5 -12 0
-5 -13 0
-5 -14 0
-6 -7 0
-6 -8 0
-6 -9 0
-6 -10 0
-6 -11 0
-6 -12 0
-6 -13 0
-6 -14 0
-7 -8 0
-7 -9 0
-7 -10 0
-7 -11 0
-7 -12 0
-7 -13 0
-7 -14 0
-8 -9 0
-8 -10 0
-8 -11 0
-8 -12 0
-8 -13 0
-8 -14 0
-9 -10 0
-9 -11 0
-9 -12 0
-9 -13 0
-9 -14 0
-10 -11 0
-10 -12 0
-10 -13 0
-10 -14 0
-11 -12 0
-11 -13 0
-11 -14 0
-12 -13 0
-12 -14 0
-13 -14 0
3227 3228 3229 3230 3231 3232 3233 3234 3235 3236 3237 3238 3239 3240 3241 3242 3243 0
-3227 -3228 0
-3227 -3229 0
-3227 -3230 0
-3227 -3231 0
-3227 -3232 0
-3227 -3233 0
-3227 -3234 0
-3227 -3235 0
-3227 -3236 0
-3227 -3237 0
-3227 -3238 0
-3227 -3239 0
-3227 -3240 0
-3227 -3241 0
-3227 -3242 0
-3227 -3243 0
-3228 -3229 0
-3228 -3230 0
-3228 -3231 0
-3228 -3232 0
-3228 -3233 0
-3228 -3234 0
-3228 -3235 0
-3228 -3236 0
-3228 -3237 0
-3228 -3238 0
-3228 -3239 0
-3228 -3240 0
-3228 -3241 0
-3228 -3242 0
-3228 -3243 0
-3229 -3230 0
-3229 -3231 0
-3229 -3232 0
-3229 -3233 0
-3229 -3234 0
-3229 -3235 0
-3229 -3236 0
-3229 -3237 0
-3229 -3238 0
-3229 -3239 0
-3229 -3240 0
-3229 -3241 0
-3229 -3242 0
-3229 -3243 0
-3230 -3231 0
-3230 -3232 0
-3230 -3233 0
-3230 -3234 0
-3230 -3235 0
-3230 -3236 0
-3230 -3237 0
-3230 -3238 0
-3230 -3239 0
-3230 -3240 0
-3230 -3241 0
-3230 -3242 0
-3230 -3243 0
-3231 -3232 0
-3231 -3233 0
-3231 -3234 0
-3231 -3235 0
-3231 -3236 0
-3231 -3237 0
-3231 -3238 0
-3231 -3239 0
-3231 -3240 0
-3231 -3241 0
-3231 -3242 0
-3231 -3243 0
-3232 -3233 0
-3232 -3234 0
-3232 -3235 0
-3232 -3236 0
-3232 -3237 0
-3232 -3238 0
-3232 -3239 0
-3232 -3240 0
-3232 -3241 0
-3232 -3242 0
-3232 -3243 0
-3233 -3234 0
-3233 -3235 0
-3233 -3236 0
-3233 -3237 0
-3233 -3238 0
-3233 -3239 0
-3233 -3240 0
-3233 -3241 0
-3233 -3242 0
-3233 -3243 0
-3234 -3235 0
-3234 -3236 0
-3234 -3237 0
-3234 -3238 0
-3234 -3239 0
-3234 -3240 0
-3234 -3241 0
-3234 -3242 0
-3234 -3243 0
-3235 -3236 0
-3235 -3237 0
-3235 -3238 0
-3235 -3239 0
-3235 -3240 0
-3235 -3241 0
-3235 -3242 0
-3235 -3243 0
-3236 -3237 0
-3236 -3238 0
-3236 -3239 0
-3236 -3240 0
-3236 -3241 0
-3236 -3242 0
-3236 -3243 0
-3237 -3238 0
-3237 -3239 0
-3237 -3240 0
-3237 -3241 0
-3237 -3242 0
-3237 -3243 0
-3238 -3239 0
-3238 -3240 0
-3238 -3241 0
-3238 -3242 0
-3238 -3243 0
-3239 -3240 0
-3239 -3241 0
-3239 -3242 0
-3239 -3243 0
-3240 -3241 0
-3240 -3242 0
-3240 -3243 0
-3241 -3242 0
-3241 -3243 0
-3242 -3243 0
